NAME : morphed18-2-21
COMMENT : Generated using the function morphInstances from the R-package netgen (Bossek,2015) - Number of clusters: 2 Alpha: 0.5
TYPE : TSP
DIMENSION : 18
EDGE_WEIGHT_TYPE : EUC_2D
NODE_COORD_SECTION
1 80.2356360133 42.5308592684
2 26.5217576185 79.7354873403
3 83.6781527556 11.2669350451
4 20.5898929044 79.1762209639
5 96.9926209757 65.2349262132
6 95.1847496608 62.6219749947
7 10.3015925181 52.1410228538
8 18.1389462922 88.0578561732
9 98.9680661443 45.9078512201
10 87.1658531558 55.002956037
11 55.0586081325 79.1933728241
12 96.0103251017 49.6228280367
13 11.4615931349 95.6691258867
14 68.5239189218 47.5257389301
15 19.9092361872 85.4863722665
16 10.9510894653 89.7866676585
17 46.5540873822 88.6952066446
18 59.7997587067 22.0345123451
EOF
